Running for instance ./models/r207.txt
Generating routes...
Execution time:  2.991223  seconds
Academic license - for non-commercial use only
Warning: constraint name "Cliente esta na rota x1" has a space
Optimize a model with 26 rows, 10000 columns and 104127 nonzeros
Variable types: 0 continuous, 10000 integer (0 binary)
Coefficient statistics:
  Matrix range     [1e+00, 1e+00]
  Objective range  [2e+01, 5e+02]
  Bounds range     [1e+00, 1e+00]
  RHS range        [1e+00, 2e+01]
Found heuristic solution: objective 804.0884851
Presolve removed 1 rows and 1535 columns
Presolve time: 0.10s
Presolved: 25 rows, 8465 columns, 81111 nonzeros
Found heuristic solution: objective 785.5322053
Variable types: 0 continuous, 8465 integer (8465 binary)

Root relaxation: objective 5.082156e+02, 90 iterations, 0.01 seconds

    Nodes    |    Current Node    |     Objective Bounds      |     Work
 Expl Unexpl |  Obj  Depth IntInf | Incumbent    BestBd   Gap | It/Node Time

     0     0  508.21558    0   23  785.53221  508.21558  35.3%     -    0s
H    0     0                     559.2107496  508.21558  9.12%     -    0s
     0     0  508.21558    0   23  559.21075  508.21558  9.12%     -    0s
H    0     0                     540.7545647  508.21558  6.02%     -    0s
     0     0  520.40627    0    4  540.75456  520.40627  3.76%     -    0s
H    0     0                     528.8883959  520.40627  1.60%     -    0s
     0     0     cutoff    0       528.88840  528.88840  0.00%     -    0s

Explored 1 nodes (154 simplex iterations) in 0.34 seconds
Thread count was 8 (of 8 available processors)

Solution count 4: 528.888 540.755 559.211 785.532 

Optimal solution found (tolerance 1.00e-04)
Best objective 5.288883958968e+02, best bound 5.288883958968e+02, gap 0.0000%

Routes:
8 11 10 9
6
15 2 22 23
13
1 20 3 12 24 25 4 21 14 16 5 17 19 18 7

Distance: 528.888395897
Execution time:  4.240728  seconds
